0             1593.0                  1141.5                   690.0
1             1899.0                  1291.0                   683.0
2             1612.0                  1147.5                   683.0
3             1293.0                  980.5                   668.0
4             1434.0                  1049.0                   664.0
5             1571.0                  1117.5                   664.0
6             1283.0                  973.5                   664.0
7             1678.0                  1171.0                   664.0
8             1376.0                  1020.0                   664.0
9             1520.0                  1092.0                   664.0
10             1484.0                  1074.0                   664.0
11             1428.0                  1042.5                   657.0
12             1379.0                  1002.5                   626.0
13             1242.0                  934.0                   626.0
14             1444.0                  1035.0                   626.0
15             1258.0                  942.0                   626.0
16             1304.0                  965.0                   626.0
17             1206.0                  916.0                   626.0
18             1125.0                  875.5                   626.0
19             1203.0                  914.5                   626.0
20             1366.0                  996.0                   626.0
21             1331.0                  974.0                   617.0
22             1209.0                  913.0                   617.0
23             1541.0                  1079.0                   617.0
24             1264.0                  940.5                   617.0
25             1344.0                  980.5                   617.0
26             1407.0                  1012.0                   617.0
27             1376.0                  996.5                   617.0
28             1351.0                  984.0                   617.0
29             1201.0                  909.0                   617.0
30             1107.0                  861.5                   616.0
31             1148.0                  867.5                   587.0
32             1231.0                  915.0                   599.0
33             1356.0                  967.0                   578.0
34             1130.0                  854.0                   578.0
35             1025.0                  801.5                   578.0
36             1231.0                  904.5                   578.0
37             1247.0                  912.5                   578.0
38             1195.0                  886.5                   578.0
39             1120.0                  849.0                   578.0
40             1189.0                  883.5                   578.0
41             1212.0                  895.0                   578.0
42             1091.0                  834.5                   578.0
43             1304.0                  941.0                   578.0
44             1134.0                  856.0                   578.0
45             996.0                  787.0                   578.0
46             1203.0                  890.5                   578.0
47             1109.0                  843.5                   578.0
48             1148.0                  863.0                   578.0
49             1029.0                  803.5                   578.0
50             1157.0                  867.5                   578.0
51             1240.0                  909.0                   578.0
52             1220.0                  899.0                   578.0
53             949.0                  763.5                   578.0
54             1177.0                  877.5                   578.0
55             1238.0                  908.0                   578.0
56             1138.0                  858.0                   578.0
57             1128.0                  853.0                   578.0
58             1296.0                  937.0                   578.0
59             1297.0                  937.5                   578.0
60             1197.0                  887.5                   578.0
61             1203.0                  890.5                   578.0
62             1183.0                  880.5                   578.0
63             1227.0                  902.5                   578.0
64             1063.0                  820.5                   578.0
65             997.0                  787.5                   578.0
66             1278.0                  911.5                   545.0
67             1128.0                  836.5                   545.0
68             1063.0                  804.0                   545.0
69             1183.0                  864.0                   545.0
70             1134.0                  839.5                   545.0
71             1012.0                  772.0                   532.0
72             1082.0                  807.0                   532.0
73             1171.0                  851.5                   532.0
74             1250.0                  891.0                   532.0
75             1099.0                  815.5                   532.0
76             1091.0                  811.5                   532.0
77             1036.0                  784.0                   532.0
78             1220.0                  876.0                   532.0
79             1264.0                  898.0                   532.0
80             1121.0                  826.5                   532.0
81             1041.0                  786.5                   532.0
82             1077.0                  804.5                   532.0
83             1301.0                  916.5                   532.0
84             1422.0                  977.0                   532.0
85             1232.0                  882.0                   532.0
86             1189.0                  860.5                   532.0
87             1052.0                  792.0                   532.0
88             1318.0                  918.5                   519.0
89             1036.0                  777.5                   519.0
90             1116.0                  817.5                   519.0
91             1099.0                  809.0                   519.0
92             1100.0                  809.5                   519.0
93             992.0                  755.5                   519.0
94             810.0                  664.5                   519.0
95             943.0                  731.0                   519.0
96             1140.0                  829.5                   519.0
97             1116.0                  817.5                   519.0
98             1088.0                  803.5                   519.0
99             1243.0                  881.0                   519.0
100             1025.0                  772.0                   519.0
101             1192.0                  855.5                   519.0
102             995.0                  757.0                   519.0
103             1210.0                  864.5                   519.0
104             1067.0                  793.0                   519.0
105             1056.0                  787.5                   519.0
106             1114.0                  816.5                   519.0
107             944.0                  731.5                   519.0
108             1053.0                  786.0                   519.0
109             1049.0                  784.0                   519.0
110             1000.0                  759.5                   519.0
111             944.0                  731.5                   519.0
112             1414.0                  966.5                   519.0
113             1165.0                  842.0                   519.0
114             1086.0                  802.5                   519.0
115             1077.0                  798.0                   519.0
116             975.0                  747.0                   519.0
117             1035.0                  777.0                   519.0
118             1126.0                  822.5                   519.0
119             1079.0                  799.0                   519.0
120             944.0                  731.5                   519.0
121             920.0                  719.5                   519.0
122             1319.0                  919.0                   519.0
123             937.0                  728.0                   519.0
124             930.0                  724.5                   519.0
125             930.0                  724.5                   519.0
126             944.0                  731.5                   519.0
127             942.0                  730.5                   519.0
128             881.0                  700.0                   519.0
129             942.0                  730.5                   519.0
130             937.0                  728.0                   519.0
131             999.0                  759.0                   519.0
132             868.0                  693.5                   519.0
133             919.0                  719.0                   519.0
134             881.0                  700.0                   519.0
135             944.0                  731.5                   519.0
136             1037.0                  778.0                   519.0
137             937.0                  728.0                   519.0
138             862.0                  690.5                   519.0
139             861.0                  690.0                   519.0
140             1104.0                  811.5                   519.0
141             920.0                  719.5                   519.0
142             931.0                  725.0                   519.0
143             944.0                  731.5                   519.0
144             937.0                  728.0                   519.0
145             944.0                  731.5                   519.0
146             881.0                  700.0                   519.0
147             944.0                  731.5                   519.0
148             920.0                  719.5                   519.0
149             1010.0                  764.5                   519.0
150             937.0                  728.0                   519.0
151             861.0                  690.0                   519.0
152             992.0                  755.5                   519.0
153             824.0                  671.5                   519.0
154             937.0                  728.0                   519.0
155             952.0                  735.5                   519.0
156             944.0                  731.5                   519.0
157             944.0                  731.5                   519.0
158             930.0                  724.5                   519.0
159             920.0                  719.5                   519.0
160             919.0                  719.0                   519.0
161             944.0                  731.5                   519.0
162             1018.0                  768.5                   519.0
163             1099.0                  809.0                   519.0
164             937.0                  728.0                   519.0
165             1023.0                  771.0                   519.0
166             881.0                  700.0                   519.0
167             1131.0                  825.0                   519.0
168             944.0                  731.5                   519.0
169             944.0                  731.5                   519.0
170             928.0                  723.5                   519.0
171             937.0                  728.0                   519.0
172             944.0                  731.5                   519.0
173             1025.0                  772.0                   519.0
174             920.0                  719.5                   519.0
175             920.0                  719.5                   519.0
176             941.0                  730.0                   519.0
177             944.0                  731.5                   519.0
178             1023.0                  771.0                   519.0
179             998.0                  758.5                   519.0
180             944.0                  731.5                   519.0
181             930.0                  724.5                   519.0
182             930.0                  724.5                   519.0
183             944.0                  731.5                   519.0
184             937.0                  728.0                   519.0
185             944.0                  731.5                   519.0
186             825.0                  672.0                   519.0
187             944.0                  731.5                   519.0
